certificates/rado_a7_c250_N36.cnf
c Rad2 upper bound instance: x1 + 7*x2 - x3 = 250, interval [1,36]
p cnf 36 238
1 3 36 0
-1 -3 -36 0
2 4 36 0
-2 -4 -36 0
3 5 36 0
-3 -5 -36 0
4 6 36 0
-4 -6 -36 0
5 7 36 0
-5 -7 -36 0
1 6 35 0
-1 -6 -35 0
6 8 36 0
-6 -8 -36 0
2 7 35 0
-2 -7 -35 0
7 9 36 0
-7 -9 -36 0
3 8 35 0
-3 -8 -35 0
8 10 36 0
-8 -10 -36 0
4 9 35 0
-4 -9 -35 0
9 11 36 0
-9 -11 -36 0
5 10 35 0
-5 -10 -35 0
10 12 36 0
-10 -12 -36 0
6 11 35 0
-6 -11 -35 0
11 13 36 0
-11 -13 -36 0
7 12 35 0
-7 -12 -35 0
12 14 36 0
-12 -14 -36 0
1 13 34 0
-1 -13 -34 0
8 13 35 0
-8 -13 -35 0
13 15 36 0
-13 -15 -36 0
2 14 34 0
-2 -14 -34 0
9 14 35 0
-9 -14 -35 0
14 16 36 0
-14 -16 -36 0
3 15 34 0
-3 -15 -34 0
10 15 35 0
-10 -15 -35 0
15 17 36 0
-15 -17 -36 0
4 16 34 0
-4 -16 -34 0
11 16 35 0
-11 -16 -35 0
16 18 36 0
-16 -18 -36 0
5 17 34 0
-5 -17 -34 0
12 17 35 0
-12 -17 -35 0
17 19 36 0
-17 -19 -36 0
6 18 34 0
-6 -18 -34 0
13 18 35 0
-13 -18 -35 0
18 20 36 0
-18 -20 -36 0
7 19 34 0
-7 -19 -34 0
14 19 35 0
-14 -19 -35 0
19 21 36 0
-19 -21 -36 0
1 20 33 0
-1 -20 -33 0
8 20 34 0
-8 -20 -34 0
15 20 35 0
-15 -20 -35 0
20 22 36 0
-20 -22 -36 0
2 21 33 0
-2 -21 -33 0
9 21 34 0
-9 -21 -34 0
16 21 35 0
-16 -21 -35 0
21 23 36 0
-21 -23 -36 0
3 22 33 0
-3 -22 -33 0
10 22 34 0
-10 -22 -34 0
17 22 35 0
-17 -22 -35 0
22 24 36 0
-22 -24 -36 0
4 23 33 0
-4 -23 -33 0
11 23 34 0
-11 -23 -34 0
18 23 35 0
-18 -23 -35 0
23 25 36 0
-23 -25 -36 0
5 24 33 0
-5 -24 -33 0
12 24 34 0
-12 -24 -34 0
19 24 35 0
-19 -24 -35 0
24 26 36 0
-24 -26 -36 0
6 25 33 0
-6 -25 -33 0
13 25 34 0
-13 -25 -34 0
20 25 35 0
-20 -25 -35 0
25 27 36 0
-25 -27 -36 0
7 26 33 0
-7 -26 -33 0
14 26 34 0
-14 -26 -34 0
21 26 35 0
-21 -26 -35 0
26 28 36 0
-26 -28 -36 0
1 27 32 0
-1 -27 -32 0
8 27 33 0
-8 -27 -33 0
15 27 34 0
-15 -27 -34 0
22 27 35 0
-22 -27 -35 0
27 29 36 0
-27 -29 -36 0
2 28 32 0
-2 -28 -32 0
9 28 33 0
-9 -28 -33 0
16 28 34 0
-16 -28 -34 0
23 28 35 0
-23 -28 -35 0
28 30 36 0
-28 -30 -36 0
3 29 32 0
-3 -29 -32 0
10 29 33 0
-10 -29 -33 0
17 29 34 0
-17 -29 -34 0
24 29 35 0
-24 -29 -35 0
29 31 36 0
-29 -31 -36 0
4 30 32 0
-4 -30 -32 0
11 30 33 0
-11 -30 -33 0
18 30 34 0
-18 -30 -34 0
25 30 35 0
-25 -30 -35 0
30 32 36 0
-30 -32 -36 0
5 31 32 0
-5 -31 -32 0
12 31 33 0
-12 -31 -33 0
19 31 34 0
-19 -31 -34 0
26 31 35 0
-26 -31 -35 0
31 33 36 0
-31 -33 -36 0
6 32 0
-6 -32 0
13 32 33 0
-13 -32 -33 0
20 32 34 0
-20 -32 -34 0
27 32 35 0
-27 -32 -35 0
32 34 36 0
-32 -34 -36 0
7 32 33 0
-7 -32 -33 0
14 33 0
-14 -33 0
21 33 34 0
-21 -33 -34 0
28 33 35 0
-28 -33 -35 0
33 35 36 0
-33 -35 -36 0
1 31 34 0
-1 -31 -34 0
8 32 34 0
-8 -32 -34 0
15 33 34 0
-15 -33 -34 0
22 34 0
-22 -34 0
29 34 35 0
-29 -34 -35 0
34 36 0
-34 -36 0
2 31 35 0
-2 -31 -35 0
9 32 35 0
-9 -32 -35 0
16 33 35 0
-16 -33 -35 0
23 34 35 0
-23 -34 -35 0
30 35 0
-30 -35 0
3 31 36 0
-3 -31 -36 0
10 32 36 0
-10 -32 -36 0
17 33 36 0
-17 -33 -36 0
24 34 36 0
-24 -34 -36 0
31 35 36 0
-31 -35 -36 0
