certificates/rado_a7_c250_N36.drat
-36 0
34 0
-22 0
20 0
24 0
-8 0
-32 0
-12 0
6 0
10 0
30 0
14 0
-18 0
-35 0
-2 0
-26 0
-33 0
16 0
13 0
23 0
0
